DATASET = "thpack1";
INSTANCE = "099";

WIDTH = 233;
HEIGHT = 220;
LENGTH = 587;

NO_OF_SHAPES = 3;
size = [|
  51,46,44 |
  95,92,47 |
  116,39,23 |
|];

verticality = [|
  1,1,1 |
  0,1,1 |
  0,1,1 |
|];

box_count = [
  64,
  46,
  44,
];
